c Sample CNF problem for portfolio SAT solver testing
c Problem 1: Small satisfiability instance
c 10 variables, 20 clauses
p cnf 10 20
1 -2 3 0
-1 4 5 0
2 -3 -4 0
5 6 -7 0
-5 8 9 0
7 -8 10 0
-6 -9 1 0
3 4 -10 0
-2 7 8 0
1 -4 6 0
-3 5 -8 0
2 9 -10 0
4 -6 7 0
-1 -5 3 0
6 8 -9 0
-7 10 2 0
5 -8 -1 0
9 -3 4 0
-4 -7 -2 0
10 1 -6 0